Custom/7922960_11.param
$ LBS instance with n = 11, seed = 7922960
letting cards be [9,28,51,10,38,13,7,33,26,8,3]
